TYPE : Vertex Cover
DIMENSION: 26
EDGE_DATA_SECTION:
0 11
0 13
0 17
0 19
0 23
0 24
1 24
2 4
2 7
2 8
2 10
2 14
2 21
3 14
5 12
5 22
6 8
6 11
6 18
6 21
6 23
6 24
7 9
7 23
8 12
9 23
10 18
11 23
11 24
12 13
12 21
13 14
13 15
13 22
15 21
16 22
17 18
18 20
21 24
-1
VERTEX_DEGREE:
6.0 1.0 6.0 1.0 1.0 2.0 6.0 3.0 3.0 2.0 2.0 4.0 4.0 5.0 3.0 2.0 1.0 2.0 4.0 1.0 1.0 5.0 3.0 5.0 5.0 0.0
VERTEX_COVER:
0 2 6 9 12 14 15 18 22 23 24
EOF
